0 1 1
0 2 1
0 3 1
0 4 1
0 5 1
0 6 1
0 7 1
0 8 1
0 9 1
1 4 1
1 10 1
2 5 1
3 5 1
4 11 1
4 12 1
4 13 1
4 5 1
4 14 1
4 15 1
5 16 1
5 17 1
5 6 1
5 7 1
8 10 1
9 18 1
11 19 1
11 14 1
12 20 1
13 21 1
14 22 1
14 23 1
14 24 1
14 25 1
14 21 1
14 26 1
15 22 1
16 17 1
17 27 1
18 28 1
19 20 1
23 26 1
24 26 1
25 26 1
26 29 1
26 30 1
26 31 1
26 32 1
26 33 1
27 28 1
29 34 1
30 33 1
31 35 1
32 36 1
32 37 1
33 34 1
33 35 1
33 38 1
33 37 1
33 39 1
35 40 1
35 39 1
36 41 1
38 42 1
40 43 1
41 44 1
42 44 1
43 45 1
43 46 1
45 47 1
46 48 1
46 47 1
48 49 1
48 50 1
49 51 1
49 52 1
49 53 1
50 51 1
52 54 1
53 55 1
54 56 1
55 57 1
55 58 1
55 59 1
56 60 1
57 59 1
58 61 1
58 62 1
58 63 1
58 64 1
58 65 1
58 66 1
58 67 1
58 68 1
58 69 1
58 70 1
58 71 1
58 59 1
58 72 1
58 73 1
59 74 1
60 75 1
61 70 1
62 76 1
63 77 1
64 78 1
64 79 1
64 66 1
64 67 1
64 68 1
64 80 1
64 81 1
64 82 1
64 83 1
64 84 1
65 66 1
67 85 1
67 86 1
67 76 1
67 87 1
67 88 1
67 80 1
67 84 1
69 89 1
70 90 1
70 91 1
70 77 1
71 74 1
72 92 1
72 93 1
72 94 1
73 95 1
73 96 1
75 97 1
75 98 1
75 99 1
76 88 1
76 87 1
78 100 1
79 80 1
81 101 1
82 102 1
82 103 1
83 85 1
86 104 1
89 105 1
90 106 1
91 107 1
91 101 1
92 93 1
93 108 1
93 94 1
93 109 1
93 110 1
93 111 1
93 95 1
93 105 1
95 112 1
96 112 1
97 113 1
98 114 1
98 115 1
98 116 1
98 113 1
99 117 1
100 104 1
101 118 1
101 119 1
102 120 1
103 120 1
103 121 1
103 122 1
106 123 1
107 119 1
108 109 1
109 124 1
110 125 1
110 126 1
110 127 1
110 128 1
110 129 1
110 130 1
110 131 1
110 132 1
111 133 1
114 134 1
114 135 1
114 136 1
114 137 1
114 138 1
114 139 1
114 140 1
114 141 1
114 115 1
114 142 1
114 143 1
116 117 1
118 123 1
120 144 1
121 144 1
122 145 1
124 130 1
125 146 1
126 133 1
127 147 1
127 148 1
127 149 1
127 150 1
127 151 1
127 152 1
127 153 1
127 154 1
127 155 1
128 129 1
128 156 1
130 131 1
132 157 1
134 141 1
135 158 1
135 159 1
135 160 1
135 161 1
135 162 1
136 162 1
136 163 1
137 140 1
138 160 1
139 164 1
140 165 1
140 142 1
141 166 1
141 167 1
141 164 1
141 168 1
141 169 1
143 163 1
145 146 1
147 149 1
147 170 1
147 151 1
148 152 1
150 154 1
151 171 1
151 172 1
151 173 1
151 170 1
151 174 1
151 175 1
151 155 1
151 176 1
152 177 1
153 172 1
154 178 1
156 179 1
157 178 1
158 180 1
159 162 1
161 165 1
166 167 1
167 180 1
168 181 1
168 182 1
169 183 1
169 184 1
169 185 1
169 186 1
169 187 1
169 188 1
169 189 1
169 190 1
169 191 1
169 192 1
169 193 1
169 194 1
169 195 1
171 196 1
171 197 1
171 198 1
171 199 1
171 200 1
171 201 1
171 202 1
171 203 1
171 204 1
171 205 1
171 206 1
171 207 1
171 208 1
171 209 1
171 210 1
171 211 1
171 212 1
171 213 1
171 214 1
171 215 1
171 174 1
171 216 1
171 217 1
171 218 1
171 219 1
171 220 1
173 174 1
174 176 1
175 215 1
177 221 1
177 222 1
179 223 1
179 224 1
181 225 1
181 226 1
181 182 1
183 227 1
184 194 1
184 228 1
184 229 1
184 230 1
185 190 1
186 231 1
186 189 1
186 191 1
186 232 1
187 190 1
188 230 1
190 233 1
190 234 1
190 235 1
190 236 1
190 237 1
190 232 1
190 238 1
191 239 1
191 240 1
191 192 1
192 241 1
192 240 1
193 242 1
193 243 1
193 244 1
193 245 1
193 246 1
193 247 1
193 248 1
193 249 1
195 250 1
195 251 1
196 252 1
197 253 1
197 254 1
197 255 1
197 256 1
197 257 1
197 258 1
197 259 1
197 260 1
197 261 1
197 262 1
197 263 1
197 264 1
197 265 1
197 266 1
197 267 1
197 268 1
197 269 1
197 270 1
197 271 1
197 272 1
197 216 1
197 273 1
198 274 1
198 275 1
198 276 1
199 277 1
200 278 1
200 207 1
200 279 1
201 280 1
202 203 1
203 281 1
203 269 1
204 282 1
204 283 1
205 284 1
205 285 1
205 286 1
205 219 1
205 287 1
206 288 1
206 289 1
207 278 1
207 290 1
207 291 1
207 279 1
208 275 1
208 252 1
209 262 1
210 292 1
211 261 1
212 293 1
213 294 1
214 295 1
217 296 1
217 297 1
217 218 1
217 298 1
218 296 1
218 299 1
218 300 1
218 301 1
218 302 1
220 303 1
220 304 1
220 290 1
220 305 1
221 286 1
221 306 1
221 222 1
221 307 1
223 224 1
224 308 1
224 309 1
224 310 1
224 311 1
224 282 1
224 312 1
225 313 1
225 314 1
226 315 1
226 229 1
226 313 1
226 314 1
227 249 1
228 316 1
229 316 1
229 317 1
231 318 1
233 319 1
234 320 1
234 321 1
235 236 1
235 322 1
237 323 1
238 324 1
239 241 1
242 325 1
242 326 1
242 327 1
242 328 1
242 245 1
242 329 1
242 330 1
242 331 1
242 332 1
242 333 1
242 334 1
243 335 1
244 246 1
244 247 1
245 328 1
246 336 1
246 337 1
246 338 1
248 339 1
250 251 1
251 340 1
253 341 1
254 273 1
255 272 1
256 342 1
257 267 1
258 343 1
259 344 1
260 266 1
260 345 1
263 346 1
263 347 1
264 348 1
264 349 1
265 350 1
267 351 1
268 344 1
268 352 1
269 281 1
270 277 1
271 353 1
271 354 1
271 305 1
271 355 1
272 356 1
272 357 1
273 358 1
274 275 1
275 359 1
275 360 1
275 361 1
275 362 1
275 357 1
275 363 1
276 362 1
280 364 1
282 312 1
282 310 1
282 365 1
282 366 1
282 283 1
284 285 1
284 294 1
287 307 1
288 361 1
289 293 1
291 367 1
292 368 1
295 367 1
297 298 1
297 301 1
299 300 1
300 369 1
300 370 1
300 371 1
300 372 1
300 373 1
302 374 1
302 375 1
302 376 1
303 377 1
304 378 1
304 379 1
306 307 1
308 310 1
309 366 1
311 365 1
315 380 1
317 381 1
318 322 1
319 343 1
320 382 1
320 383 1
320 321 1
323 384 1
324 385 1
324 386 1
325 326 1
326 387 1
326 388 1
326 389 1
326 329 1
327 390 1
330 391 1
331 392 1
332 343 1
333 387 1
334 393 1
334 394 1
335 336 1
335 339 1
335 395 1
336 395 1
337 396 1
338 396 1
338 397 1
338 398 1
340 399 1
340 400 1
341 343 1
342 349 1
343 401 1
343 402 1
343 390 1
343 403 1
343 404 1
345 405 1
346 406 1
346 407 1
347 352 1
348 408 1
348 409 1
350 410 1
351 411 1
351 356 1
353 355 1
354 377 1
355 412 1
358 413 1
359 360 1
359 414 1
361 414 1
361 363 1
364 415 1
364 416 1
368 374 1
369 371 1
369 417 1
370 418 1
371 419 1
372 420 1
372 421 1
373 422 1
373 420 1
373 421 1
374 375 1
374 376 1
378 379 1
378 423 1
380 381 1
382 383 1
382 424 1
382 425 1
384 426 1
385 427 1
386 428 1
388 429 1
389 430 1
391 431 1
392 432 1
393 394 1
394 433 1
397 398 1
397 432 1
399 434 1
400 434 1
401 424 1
402 435 1
403 436 1
404 431 1
405 411 1
406 437 1
407 438 1
408 439 1
409 440 1
410 441 1
412 442 1
412 443 1
413 441 1
415 444 1
416 445 1
416 446 1
416 438 1
417 447 1
418 447 1
419 422 1
419 448 1
422 449 1
422 450 1
422 451 1
422 452 1
423 442 1
424 453 1
425 454 1
426 455 1
427 456 1
428 457 1
428 458 1
428 459 1
429 460 1
430 461 1
433 462 1
434 458 1
435 463 1
435 464 1
436 465 1
437 466 1
439 467 1
439 468 1
440 469 1
441 470 1
442 443 1
444 471 1
445 471 1
446 472 1
448 449 1
450 473 1
450 474 1
450 475 1
450 476 1
450 467 1
450 452 1
451 477 1
453 454 1
455 478 1
456 479 1
457 458 1
458 459 1
460 480 1
461 463 1
462 480 1
463 464 1
465 481 1
466 472 1
467 482 1
467 468 1
469 483 1
470 484 1
473 485 1
474 486 1
475 487 1
476 482 1
477 485 1
478 488 1
479 489 1
481 490 1
483 486 1
483 491 1
484 492 1
486 487 1
486 491 1
488 493 1
489 494 1
490 495 1
490 496 1
492 496 1
493 497 1
494 498 1
495 496 1
497 498 1
